%SETS
JOBS     = 1..2;
MACHINES = 1..2;
SPEED    = 1;

time               = array3d(JOBS,MACHINES,1..SPEED,[64, 59, 48, 68]);
energy             = array3d(JOBS,MACHINES,1..SPEED,[52, 55, 61, 50]);
precedence         = array2d(JOBS,MACHINES,[1,0,0,1]);